(set-logic ALL)
(declare-const x String)
(declare-const y String)
(assert (str.in_re x (re.* (re.union (str.to_re "?Z't\\'g") (str.to_re "123")))))
(assert (= 11 (str.len x)))
(assert (not (= x "?Z't\\'g123?Z't\\'g")))
(assert (not (= x "?Z't\\'g?Z't\\'g123")))
(check-sat)
